60
4 0 1
4 3 6
5 0 6
5 2 2
5 3 4
5 4 3
6 0 3
6 1 2
6 3 4
6 4 1
6 5 1
7 2 5
7 5 1
7 6 4
8 0 2
8 4 6
9 0 4
9 2 2
9 5 4
9 6 6
10 0 4
10 2 3
10 3 2
10 8 3
10 9 3
11 0 2
11 1 5
11 2 4
11 6 1
11 9 6
12 0 6
12 1 4
12 2 1
12 5 5
12 6 1
12 7 3
12 8 3
12 9 1
12 11 2
13 1 3
13 4 6
13 7 3
13 9 4
13 10 1
13 11 6
13 12 1
14 0 6
14 1 5
14 3 1
14 4 5
14 7 2
14 11 6
14 12 5
14 13 1
15 2 5
15 4 1
15 5 5
15 7 2
15 9 2
15 10 3
15 11 4
15 12 3
15 14 6
16 0 3
16 1 2
16 2 1
16 3 3
16 5 5
16 6 3
16 9 6
16 10 6
16 12 4
16 14 4
16 15 1
17 0 1
17 1 2
17 7 2
17 9 2
17 10 3
17 11 5
17 12 4
17 15 2
17 16 4
18 1 6
18 6 3
18 11 3
18 14 4
18 15 3
18 16 2
18 17 5
19 0 1
19 1 5
19 2 1
19 5 1
19 8 5
19 9 2
19 10 3
19 13 5
19 14 1
20 1 5
20 5 4
20 6 3
20 10 1
20 11 3
20 13 2
20 17 6
20 18 6
20 19 2
21 6 1
21 8 6
21 9 6
21 10 6
21 11 4
21 15 3
21 17 1
21 19 6
22 0 3
22 2 2
22 4 6
22 5 4
22 8 3
22 9 5
22 11 5
22 12 3
22 13 1
22 14 5
22 17 4
22 18 4
22 20 1
23 0 4
23 4 2
23 15 2
23 16 6
23 17 4
23 18 4
23 19 3
23 20 5
24 3 3
24 4 6
24 5 2
24 6 5
24 9 3
24 11 3
24 12 3
24 14 3
24 19 3
24 20 1
24 21 1
25 0 6
25 3 6
25 4 4
25 7 4
25 8 3
25 17 6
25 18 3
25 19 2
25 20 4
26 1 2
26 2 6
26 3 2
26 5 2
26 6 5
26 7 2
26 12 2
26 14 2
26 16 3
26 18 3
26 19 5
26 21 1
26 22 4
26 24 5
26 25 1
27 0 5
27 2 3
27 3 6
27 5 2
27 8 4
27 10 6
27 11 1
27 12 2
27 15 6
27 16 5
27 17 2
27 22 4
27 23 6
27 26 2
28 0 2
28 1 5
28 2 3
28 4 1
28 5 1
28 7 1
28 8 6
28 10 2
28 11 4
28 12 6
28 13 3
28 16 4
28 17 6
28 18 1
28 19 5
28 20 4
28 21 2
28 22 3
28 24 2
29 1 5
29 7 3
29 8 5
29 9 3
29 10 5
29 12 2
29 13 2
29 14 2
29 18 1
29 20 2
29 21 4
29 22 1
29 24 6
29 25 6
29 28 2
30 0 1
30 2 5
30 5 3
30 9 5
30 10 2
30 12 6
30 13 4
30 14 3
30 16 6
30 20 3
30 22 6
30 25 5
30 26 2
31 0 6
31 1 4
31 2 6
31 3 2
31 6 4
31 9 2
31 10 5
31 11 5
31 13 5
31 15 5
31 18 5
31 19 3
31 20 3
31 21 1
31 22 1
31 23 2
31 29 5
32 0 3
32 1 4
32 3 2
32 8 3
32 10 3
32 11 6
32 12 1
32 13 4
32 16 5
32 17 2
32 19 3
32 20 6
32 21 4
32 23 1
32 24 4
32 26 1
32 27 3
32 29 3
32 30 1
33 5 2
33 7 5
33 9 2
33 10 6
33 11 1
33 12 2
33 15 3
33 18 1
33 20 6
33 21 5
33 25 3
33 26 3
33 27 3
33 28 5
33 29 5
33 30 3
33 32 2
34 1 2
34 2 1
34 3 4
34 5 3
34 7 6
34 8 2
34 12 1
34 13 3
34 14 1
34 19 6
34 20 4
34 22 2
34 24 4
34 26 1
34 28 3
34 32 5
35 6 1
35 7 5
35 8 3
35 9 3
35 10 5
35 14 2
35 16 5
35 17 4
35 20 5
35 22 4
35 26 2
35 27 3
35 29 2
35 30 5
35 32 6
36 1 6
36 2 5
36 3 6
36 4 2
36 9 1
36 11 6
36 12 2
36 14 2
36 17 5
36 21 3
36 23 3
36 24 2
36 26 1
36 29 2
37 0 3
37 2 1
37 4 4
37 6 5
37 7 4
37 11 6
37 12 5
37 14 4
37 16 2
37 19 3
37 22 1
37 26 5
37 27 3
37 33 4
37 34 5
38 0 2
38 1 3
38 2 1
38 4 6
38 5 6
38 11 2
38 14 5
38 17 6
38 18 1
38 22 5
38 24 5
38 25 3
38 28 4
38 30 6
38 33 3
38 34 4
38 35 2
38 36 3
39 0 1
39 1 3
39 4 2
39 5 6
39 6 6
39 9 3
39 11 1
39 12 4
39 13 3
39 14 1
39 15 6
39 16 4
39 19 1
39 20 4
39 23 4
39 24 3
39 25 2
39 31 6
39 35 6
39 36 4
39 37 6
39 38 5
40 0 1
40 2 6
40 4 3
40 6 4
40 7 2
40 8 1
40 9 5
40 11 1
40 13 5
40 14 1
40 15 2
40 17 6
40 18 3
40 21 5
40 25 4
40 27 6
40 28 3
40 29 6
40 35 3
40 39 3
41 0 6
41 4 4
41 7 3
41 10 1
41 11 3
41 12 6
41 14 5
41 17 1
41 19 2
41 21 4
41 22 3
41 29 5
41 31 2
41 32 4
41 34 3
41 36 5
41 37 4
41 40 2
42 3 4
42 4 5
42 5 1
42 6 2
42 7 5
42 10 4
42 12 4
42 13 4
42 16 4
42 18 2
42 21 2
42 26 6
42 27 1
42 29 5
42 30 4
43 0 3
43 1 1
43 2 5
43 5 1
43 6 6
43 8 3
43 9 3
43 15 4
43 17 3
43 18 6
43 23 5
43 25 6
43 26 1
43 27 3
43 28 4
43 29 6
43 30 4
43 31 2
43 32 5
43 33 1
43 34 4
43 35 2
43 36 2
43 38 5
43 40 5
44 1 2
44 4 3
44 5 3
44 7 4
44 9 3
44 11 3
44 13 1
44 14 2
44 15 4
44 19 2
44 20 4
44 21 3
44 22 3
44 28 5
44 30 4
44 38 5
44 42 1
45 1 1
45 5 5
45 6 6
45 9 4
45 10 3
45 11 6
45 12 2
45 13 1
45 14 2
45 15 4
45 16 2
45 18 3
45 22 3
45 24 2
45 26 3
45 34 6
45 36 1
45 38 5
45 42 2
45 43 4
46 1 4
46 4 5
46 5 4
46 9 5
46 10 2
46 11 4
46 12 4
46 16 3
46 17 1
46 21 1
46 24 3
46 26 1
46 28 6
46 29 5
46 30 5
46 31 3
46 33 2
46 34 3
46 35 4
46 37 3
46 38 6
46 40 3
46 44 5
47 0 6
47 1 4
47 2 4
47 4 4
47 7 6
47 8 1
47 10 2
47 13 5
47 16 4
47 18 3
47 19 2
47 22 1
47 25 3
47 27 3
47 30 1
47 31 5
47 34 6
47 35 5
47 37 2
47 40 6
47 41 4
47 42 1
47 45 6
48 0 1
48 1 3
48 3 5
48 5 5
48 6 4
48 8 6
48 9 1
48 12 3
48 13 6
48 14 2
48 15 6
48 16 6
48 17 6
48 20 4
48 21 4
48 22 6
48 24 2
48 25 4
48 28 1
48 29 4
48 31 2
48 33 4
48 37 3
48 40 2
48 42 1
48 44 6
48 47 5
49 0 3
49 2 6
49 7 4
49 11 1
49 13 4
49 14 3
49 15 2
49 18 6
49 19 1
49 20 5
49 22 2
49 23 1
49 25 5
49 28 2
49 32 6
49 34 5
49 35 1
49 36 4
49 37 3
49 41 6
49 42 1
49 43 5
49 46 4
50 3 3
50 4 1
50 5 5
50 7 4
50 8 2
50 10 6
50 11 1
50 12 2
50 14 1
50 16 6
50 19 4
50 20 3
50 22 1
50 24 2
50 26 4
50 27 2
50 29 2
50 32 6
50 34 6
50 38 1
50 42 3
50 45 5
50 46 1
50 47 2
51 6 6
51 7 1
51 9 2
51 12 3
51 18 2
51 19 5
51 23 4
51 24 5
51 26 2
51 30 6
51 32 4
51 34 6
51 45 5
51 48 3
52 7 2
52 11 6
52 12 4
52 13 6
52 14 2
52 15 3
52 16 4
52 21 6
52 23 2
52 24 6
52 27 4
52 28 3
52 30 4
52 32 5
52 33 3
52 35 5
52 40 1
52 45 3
52 47 2
52 48 6
52 50 2
53 0 1
53 3 2
53 4 6
53 5 5
53 6 5
53 7 5
53 12 6
53 13 3
53 16 1
53 23 3
53 24 3
53 28 4
53 30 1
53 32 3
53 33 1
53 39 5
53 41 3
53 43 2
53 44 2
53 45 3
53 46 3
53 48 2
53 52 4
54 0 3
54 2 4
54 4 5
54 6 2
54 7 2
54 8 4
54 9 5
54 11 6
54 12 3
54 13 3
54 14 4
54 15 3
54 18 4
54 19 2
54 20 5
54 23 1
54 26 1
54 29 1
54 32 6
54 33 5
54 34 3
54 36 1
54 37 5
54 38 3
54 43 4
54 46 3
54 47 1
54 49 5
54 50 3
54 51 1
55 0 4
55 4 5
55 5 1
55 9 6
55 11 4
55 13 5
55 14 2
55 15 5
55 16 4
55 17 5
55 18 2
55 19 4
55 22 2
55 24 5
55 26 1
55 27 2
55 28 6
55 29 3
55 30 1
55 31 5
55 33 6
55 34 5
55 39 1
55 41 3
55 44 1
55 45 5
55 48 3
55 49 3
55 51 1
55 53 1
55 54 4
56 1 3
56 2 1
56 4 2
56 5 5
56 6 1
56 11 2
56 12 4
56 13 5
56 20 6
56 23 2
56 24 2
56 28 5
56 30 5
56 31 3
56 32 1
56 33 4
56 37 6
56 39 6
56 40 6
56 42 2
56 43 6
56 44 4
56 47 3
56 49 3
56 52 4
57 0 5
57 4 5
57 5 5
57 6 1
57 7 2
57 8 4
57 10 4
57 12 1
57 13 3
57 16 2
57 17 4
57 18 3
57 21 1
57 23 6
57 25 3
57 26 6
57 27 6
57 28 1
57 31 1
57 36 5
57 37 3
57 39 4
57 41 6
57 43 2
57 45 3
57 46 5
57 48 6
57 51 6
57 54 1
57 55 3
58 0 6
58 4 2
58 6 1
58 8 5
58 11 2
58 13 6
58 16 4
58 17 6
58 19 2
58 22 6
58 24 6
58 26 1
58 28 1
58 29 6
58 31 4
58 32 1
58 33 3
58 37 4
58 43 1
58 44 2
58 49 5
58 51 1
58 53 5
58 54 2
58 55 3
59 3 3
59 4 2
59 9 2
59 10 5
59 11 1
59 14 2
59 16 4
59 17 6
59 18 1
59 21 4
59 22 1
59 25 5
59 30 3
59 31 2
59 32 5
59 33 2
59 37 3
59 38 6
59 40 4
59 42 2
59 43 6
59 45 4
59 46 6
59 50 3
59 53 6
59 55 4
59 56 2
59 57 3
